num_offers = 20;
num_halls = 10;
start=[19,7,26,22,36,5,22,5,62,81,5,27,55,38,33,29,1,13,29,4];
end=[81,39,50,68,69,34,92,94,63,98,9,47,56,78,44,92,6,62,79,56];
price=[2113,2361,2102,3938,453,843,2999,6376,95,1591,322,1457,176,3007,190,2866,94,3228,2012,3952];
requirement=[652,306,432,785,444,714,351,250,914,596,680,544,423,597,987,462,244,992,346,485];
capacity=[999,928,640,819,726,414,944,999,483,766];
